
Gurobi 6.5.2 (win64) logging started 07/24/16 17:39:49


Gurobi 6.5.2 (win64) logging started 07/24/16 17:39:49

Optimize a model with 2983 rows, 763 columns and 7722 nonzeros
Coefficient statistics:
  Matrix range    [6e-08, 4e+02]
  Objective range [1e+00, 1e+00]
  Bounds range    [1e+00, 1e+00]
  RHS range       [6e-06, 2e+03]
Presolve removed 2304 rows and 86 columns
Presolve time: 0.02s
Presolved: 679 rows, 677 columns, 3238 nonzeros
Variable types: 285 continuous, 392 integer (392 binary)

Root relaxation: objective 1.767683e+01, 1787 iterations, 0.06 seconds

    Nodes    |    Current Node    |     Objective Bounds      |     Work
 Expl Unexpl |  Obj  Depth IntInf | Incumbent    BestBd   Gap | It/Node Time

     0     0   17.67683    0  128          -   17.67683      -     -    0s
H    0     0                     124.8468108   17.67683  85.8%     -    0s
     0     0   19.15867    0  112  124.84681   19.15867  84.7%     -    0s
H    0     0                      19.6155873   19.15867  2.33%     -    0s
H    0     0                      19.5836379   19.15867  2.17%     -    0s
     0     0   19.16783    0  110   19.58364   19.16783  2.12%     -    0s
     0     0   19.17780    0  101   19.58364   19.17780  2.07%     -    0s
     0     0   19.17780    0   90   19.58364   19.17780  2.07%     -    0s
     0     0   19.17780    0   86   19.58364   19.17780  2.07%     -    0s
H    0     0                      19.5644282   19.17780  1.98%     -    0s
     0     0   19.18126    0   89   19.56443   19.18126  1.96%     -    0s
     0     0   19.18289    0   90   19.56443   19.18289  1.95%     -    0s
     0     0   19.18309    0   91   19.56443   19.18309  1.95%     -    0s
     0     0   19.18374    0   90   19.56443   19.18374  1.95%     -    0s
     0     0   19.18374    0   82   19.56443   19.18374  1.95%     -    0s
     0     2   19.18374    0   82   19.56443   19.18374  1.95%     -    0s
H   27    17                      19.5600948   19.21809  1.75%  16.2    0s
H   78    57                      19.5396469   19.21809  1.65%  10.5    0s
*  178   114              24      19.5304775   19.25181  1.43%   9.0    0s
*  180   112              24      19.5104575   19.25181  1.33%   8.9    0s
*  565   310              23      19.5065701   19.30451  1.04%   8.5    0s
H  886   470                      19.5005786   19.31737  0.94%   8.0    0s
H 1274   597                      19.4855867   19.32517  0.82%   7.6    0s
* 3837   911              34      19.4806666   19.34176  0.71%   7.2    1s

Cutting planes:
  MIR: 39
  Flow cover: 15

Explored 10527 nodes (67444 simplex iterations) in 1.72 seconds
Thread count was 8 (of 8 available processors)

Optimal solution found (tolerance 1.00e-04)
Best objective 1.948066656527e+01, best bound 1.948066656527e+01, gap 0.0%

Wrote requested result file 'H1\instance22\\Results22E_Sol6.lp'

